Route #1: 18 83 84 17 86 16 5
Route #2: 89 93 59 95 94
Route #3: 6 96 99 61 85 100 98 37
Route #4: 92 91 44 38 14 43 15 41 22 74 40
Route #5: 53 58 2 57 42 87 97 13
Route #6: 26 4 39 56 72 21
Route #7: 54 55 25 67 23 75 73
Route #8: 28 76 77 3 68 12
Route #9: 20 66 71 65 35 34 78 29 24 80
Route #10: 1 51 9 81 33 79 50
Route #11: 27
Route #12: 88 62 10 63 90 32 30 70 69
Route #13: 52 7 19 47 48 82
Route #14: 31 11 64 49 36 46 8 45 60
Cost 1085
Time 0.254853
